* ENCODING=ISO-8859-1
NAME          CPLEX
ROWS
 N  obj1    
 G  c1      
 G  c2      
 G  c3      
 G  c4      
 G  c5      
 G  c6      
 G  c7      
 G  c8      
 G  c9      
 G  c10     
 G  c11     
 G  c12     
 G  c13     
 G  c14     
 G  c15     
 G  c16     
 G  c17     
 G  c18     
 G  c19     
 G  c20     
 G  c21     
 G  c22     
 G  c23     
 G  c24     
 G  c25     
 G  c26     
 G  c27     
 G  c28     
 G  c29     
 G  c30     
 G  c31     
 G  c32     
 G  c33     
 G  c34     
 G  c35     
COLUMNS
    MARK0000  'MARKER'                 'INTORG'
    x1        obj1                            1
    x2        obj1                            1
    x2        c8                            735
    x2        c9                            703
    x2        c22                           200
    x2        c29                           716
    x3        obj1                            1
    x3        c4                            377
    x3        c23                           264
    x3        c24                           245
    x4        obj1                            1
    x4        c12                           545
    x5        obj1                            1
    x5        c1                            417
    x5        c12                           196
    x5        c20                           725
    x6        obj1                            1
    x6        c8                            546
    x6        c19                           674
    x7        obj1                            1
    x7        c5                            839
    x7        c13                           543
    x7        c20                           927
    x7        c32                           964
    x8        obj1                            1
    x8        c3                            600
    x8        c18                           161
    x8        c29                           654
    x9        obj1                            1
    x9        c5                            533
    x9        c7                            474
    x9        c25                           758
    x10       obj1                            1
    x10       c7                            980
    x10       c18                           486
    x10       c20                           333
    x10       c26                           153
    x10       c30                           898
    x10       c35                           537
    x11       obj1                            1
    x11       c6                            261
    x11       c12                           483
    x11       c30                           886
    x12       obj1                            1
    x12       c21                           508
    x13       obj1                            1
    x13       c5                            376
    x13       c20                           995
    x13       c27                           258
    x13       c30                           776
    x13       c33                           701
    x14       obj1                            1
    x14       c4                            328
    x14       c10                           128
    x14       c13                           765
    x14       c16                           796
    x14       c24                           279
    x15       obj1                            1
    x15       c8                            465
    x15       c10                           339
    x15       c11                           282
    x15       c31                           605
    x16       obj1                            1
    x16       c5                            180
    x16       c15                           541
    x16       c24                           271
    x17       obj1                            1
    x17       c2                            549
    x17       c20                           670
    x17       c21                           375
    x17       c25                           518
    x18       obj1                            1
    x18       c12                           810
    x18       c14                           832
    x18       c19                           245
    x18       c34                           619
    x19       obj1                            1
    x19       c4                            786
    x19       c10                           643
    x19       c18                           196
    x19       c30                           996
    x19       c31                           945
    x20       obj1                            1
    x20       c4                            683
    x20       c29                           878
    x20       c32                           459
    x21       obj1                            1
    x21       c8                            181
    x21       c20                           635
    x21       c23                           526
    x21       c24                           434
    x21       c28                           658
    x22       obj1                            1
    x22       c9                            406
    x23       obj1                            1
    x23       c2                            161
    x23       c8                            274
    x23       c26                           508
    x23       c33                           891
    x24       obj1                            1
    x24       c4                            217
    x25       obj1                            1
    x25       c11                           419
    x25       c18                           339
    x25       c25                           301
    x26       obj1                            1
    x26       c7                            337
    x26       c9                            402
    x26       c16                           141
    x26       c30                           629
    x27       obj1                            1
    x27       c15                           419
    x27       c16                           595
    x27       c19                           450
    x27       c23                           952
    x27       c26                           696
    x28       obj1                            1
    x28       c14                           592
    x29       obj1                            1
    x29       c2                            523
    x30       obj1                            1
    x30       c17                           835
    x30       c19                           233
    x30       c25                           238
    x30       c28                           872
    x30       c30                           356
    x31       obj1                            1
    x31       c18                           905
    x31       c27                           346
    x31       c33                           160
    x32       obj1                            1
    x32       c20                           318
    x33       obj1                            1
    x33       c3                            295
    x33       c5                            205
    x33       c20                           197
    x33       c28                           627
    x33       c33                           104
    x33       c35                           270
    x34       obj1                            1
    x34       c1                            460
    x34       c19                           569
    x34       c33                           965
    x35       obj1                            1
    x35       c20                           618
    x35       c33                           250
    x36       obj1                            1
    x36       c10                           735
    x36       c17                           902
    x36       c25                           392
    x37       obj1                            1
    x37       c3                            419
    x37       c9                            577
    x37       c15                           753
    x37       c28                           361
    x37       c29                           153
    x38       obj1                            1
    x38       c1                            807
    x38       c2                            435
    x38       c4                            764
    x38       c8                            299
    x38       c10                           497
    x38       c25                           648
    x38       c29                           401
    x38       c30                           677
    x39       obj1                            1
    x39       c9                            985
    x39       c12                           458
    x39       c17                           369
    x39       c34                           529
    x40       obj1                            1
    x40       c2                            450
    x40       c10                           365
    x40       c19                           390
    x40       c27                           219
    x40       c34                           422
    x41       obj1                            1
    x41       c12                           136
    x41       c14                           243
    x41       c30                           652
    x42       obj1                            1
    x42       c19                           920
    x42       c26                           396
    x43       obj1                            1
    x43       c6                            264
    x43       c14                           938
    x43       c15                           867
    x44       obj1                            1
    x44       c5                            836
    x44       c7                            373
    x44       c8                            824
    x44       c22                           424
    x45       obj1                            1
    x45       c3                            118
    x45       c8                            201
    x45       c16                           150
    x45       c22                           585
    x45       c28                           775
    x46       obj1                            1
    x46       c3                            624
    x47       obj1                            1
    x47       c6                            235
    x48       obj1                            1
    x48       c7                            686
    x48       c12                           251
    x48       c18                           707
    x48       c26                           810
    x49       obj1                            1
    x50       obj1                            1
    x50       c8                            917
    x50       c9                            595
    x50       c24                           345
    x51       obj1                            1
    x51       c21                           371
    x51       c25                           548
    x51       c33                           963
    x52       obj1                            1
    x52       c29                           127
    x53       obj1                            1
    x53       c10                           218
    x53       c20                           690
    x53       c26                           410
    x54       obj1                            1
    x54       c3                            295
    x54       c6                            820
    x54       c10                           226
    x54       c21                           645
    x54       c31                           339
    x54       c32                           565
    x55       obj1                            1
    x55       c1                            473
    x55       c13                           899
    x55       c32                           919
    x55       c35                           981
    x56       obj1                            1
    x56       c19                           284
    x57       obj1                            1
    x57       c8                            669
    x57       c21                           533
    x57       c22                           609
    x58       obj1                            1
    x59       obj1                            1
    x59       c1                            384
    x59       c19                           285
    x59       c24                           774
    x59       c28                           364
    x60       obj1                            1
    x60       c9                            760
    x60       c13                           303
    x60       c34                           638
    x61       obj1                            1
    x61       c18                           469
    x61       c22                           772
    x62       obj1                            1
    x62       c9                            388
    x62       c10                           962
    x62       c18                           439
    x62       c27                           123
    x63       obj1                            1
    x63       c3                            885
    x63       c4                            189
    x63       c6                            538
    x63       c22                           937
    x63       c23                           216
    x63       c25                           662
    x64       obj1                            1
    x64       c1                            763
    x64       c6                            648
    x64       c15                           893
    x64       c18                           700
    x64       c27                           246
    x64       c31                           400
    x65       obj1                            1
    x65       c3                            695
    x65       c11                           374
    x65       c15                           635
    x65       c17                           544
    x65       c31                           228
    x66       obj1                            1
    x66       c9                            513
    x66       c16                           415
    x66       c29                           608
    x67       obj1                            1
    x67       c11                           940
    x67       c22                           434
    x67       c35                           655
    x68       obj1                            1
    x68       c4                            225
    x68       c33                           779
    x68       c35                           137
    x69       obj1                            1
    x69       c18                           679
    x69       c24                           201
    x69       c27                           416
    x70       obj1                            1
    x70       c16                           175
    x70       c26                           851
    x70       c29                           264
    MARK0001  'MARKER'                 'INTEND'
RHS
    rhs       c1                           1652
    rhs       c2                           1059
    rhs       c3                           1966
    rhs       c4                           1785
    rhs       c5                           1485
    rhs       c6                           1383
    rhs       c7                           1425
    rhs       c8                           2556
    rhs       c9                           2665
    rhs       c10                          2057
    rhs       c11                          1008
    rhs       c12                          1440
    rhs       c13                          1255
    rhs       c14                          1303
    rhs       c15                          2054
    rhs       c16                          1136
    rhs       c17                          1325
    rhs       c18                          2541
    rhs       c19                          2025
    rhs       c20                          3054
    rhs       c21                          1216
    rhs       c22                          1981
    rhs       c23                           979
    rhs       c24                          1275
    rhs       c25                          2033
    rhs       c26                          1912
    rhs       c27                           804
    rhs       c28                          1829
    rhs       c29                          1901
    rhs       c30                          2935
    rhs       c31                          1259
    rhs       c32                          1454
    rhs       c33                          2407
    rhs       c34                          1104
    rhs       c35                          1290
BOUNDS
 LI bnd       x1        0
 LI bnd       x2        0
 LI bnd       x3        0
 LI bnd       x4        0
 LI bnd       x5        0
 LI bnd       x6        0
 LI bnd       x7        0
 LI bnd       x8        0
 LI bnd       x9        0
 LI bnd       x10       0
 LI bnd       x11       0
 LI bnd       x12       0
 LI bnd       x13       0
 LI bnd       x14       0
 LI bnd       x15       0
 LI bnd       x16       0
 LI bnd       x17       0
 LI bnd       x18       0
 LI bnd       x19       0
 LI bnd       x20       0
 LI bnd       x21       0
 LI bnd       x22       0
 LI bnd       x23       0
 LI bnd       x24       0
 LI bnd       x25       0
 LI bnd       x26       0
 LI bnd       x27       0
 LI bnd       x28       0
 LI bnd       x29       0
 LI bnd       x30       0
 LI bnd       x31       0
 LI bnd       x32       0
 LI bnd       x33       0
 LI bnd       x34       0
 LI bnd       x35       0
 LI bnd       x36       0
 LI bnd       x37       0
 LI bnd       x38       0
 LI bnd       x39       0
 LI bnd       x40       0
 LI bnd       x41       0
 LI bnd       x42       0
 LI bnd       x43       0
 LI bnd       x44       0
 LI bnd       x45       0
 LI bnd       x46       0
 LI bnd       x47       0
 LI bnd       x48       0
 LI bnd       x49       0
 LI bnd       x50       0
 LI bnd       x51       0
 LI bnd       x52       0
 LI bnd       x53       0
 LI bnd       x54       0
 LI bnd       x55       0
 LI bnd       x56       0
 LI bnd       x57       0
 LI bnd       x58       0
 LI bnd       x59       0
 LI bnd       x60       0
 LI bnd       x61       0
 LI bnd       x62       0
 LI bnd       x63       0
 LI bnd       x64       0
 LI bnd       x65       0
 LI bnd       x66       0
 LI bnd       x67       0
 LI bnd       x68       0
 LI bnd       x69       0
 LI bnd       x70       0
ENDATA
